c WARNING: for repeatability, setting FPU to use double precision
d VARIABLES            66930        
d CONSTRAINTS          268711       
c ============================[ Problem Statistics ]=============================
c |                                                                             |
c |  Number of variables:         66930                                         |
c |  Number of clauses:          268711                                         |
c |  Parse time:                   0.04 s                                       |
c |                                                                             |
c ============================[ Search Statistics ]==============================
c | Conflicts |          ORIGINAL         |          LEARNT          | Progress |
c |           |    Vars  Clauses Literals |    Limit  Clauses Lit/Cl |          |
c ===============================================================================
c |       100 |   49217   223865   547217 |    82083       98    113 | 26.465 % |
c |       250 |   49216   223865   547217 |    90292      247     75 | 26.466 % |
c |       475 |   49216   223581   546536 |    99321      472     69 | 26.466 % |
c |       812 |   49216   223581   546536 |   109253      809     87 | 26.466 % |
c |      1318 |   49215   223570   546510 |   120178     1313     80 | 26.468 % |
c |      2077 |   49207   223500   546347 |   132196     2062     79 | 26.480 % |
c |      3216 |   49200   223420   546160 |   145416     3190     74 | 26.490 % |
c |      4924 |   49194   223370   546043 |   159958     4886     72 | 26.499 % |
c |      7486 |   49176   223241   545742 |   175953     7413     67 | 26.526 % |
c |     11330 |   49146   222983   545141 |   193549    11183     69 | 26.571 % |
c ===============================================================================
c restarts              : 61
c conflicts             : 14029          (6642 /sec)
c decisions             : 57290          (0.00 % random) (27124 /sec)
c propagations          : 15177774       (7185997 /sec)
c conflict literals     : 922540         (34.43 % deleted)
d RESTARTS             61
d FAILURES             14029        
d NODES                57290        
d BACKTRACKS           57290        
d PROPAGATIONS         15177774     
d NOGOODSIZE           65.76 
d MEMORY               31.00 
d TIME                 2.11213 

s UNSATISFIABLE
